c colouring generated by benchmark framework
p edge 500 58862
v 1 56
v 2 1
v 3 29
v 4 90
v 5 3
v 6 89
v 7 45
v 8 29
v 9 34
v 10 65
v 11 25
v 12 18
v 13 49
v 14 109
v 15 80
v 16 19
v 17 15
v 18 109
v 19 108
v 20 106
v 21 13
v 22 27
v 23 7
v 24 61
v 25 9
v 26 74
v 27 12
v 28 128
v 29 92
v 30 34
v 31 34
v 32 73
v 33 31
v 34 18
v 35 61
v 36 100
v 37 97
v 38 16
v 39 61
v 40 3
v 41 63
v 42 8
v 43 10
v 44 95
v 45 42
v 46 106
v 47 14
v 48 55
v 49 54
v 50 54
v 51 126
v 52 0
v 53 17
v 54 8
v 55 12
v 56 91
v 57 17
v 58 129
v 59 78
v 60 28
v 61 76
v 62 52
v 63 16
v 64 42
v 65 99
v 66 91
v 67 131
v 68 73
v 69 11
v 70 6
v 71 10
v 72 100
v 73 58
v 74 90
v 75 74
v 76 88
v 77 8
v 78 13
v 79 22
v 80 30
v 81 116
v 82 46
v 83 85
v 84 13
v 85 25
v 86 29
v 87 27
v 88 24
v 89 18
v 90 24
v 91 52
v 92 107
v 93 50
v 94 110
v 95 60
v 96 58
v 97 90
v 98 44
v 99 101
v 100 8
v 101 121
v 102 22
v 103 79
v 104 11
v 105 4
v 106 7
v 107 99
v 108 0
v 109 84
v 110 82
v 111 45
v 112 10
v 113 54
v 114 86
v 115 131
v 116 111
v 117 94
v 118 68
v 119 88
v 120 66
v 121 14
v 122 17
v 123 63
v 124 32
v 125 117
v 126 69
v 127 26
v 128 23
v 129 39
v 130 65
v 131 5
v 132 114
v 133 114
v 134 119
v 135 38
v 136 67
v 137 47
v 138 3
v 139 118
v 140 59
v 141 57
v 142 52
v 143 13
v 144 89
v 145 96
v 146 83
v 147 111
v 148 13
v 149 119
v 150 62
v 151 107
v 152 13
v 153 73
v 154 39
v 155 32
v 156 79
v 157 117
v 158 119
v 159 92
v 160 53
v 161 59
v 162 37
v 163 104
v 164 11
v 165 130
v 166 49
v 167 19
v 168 78
v 169 57
v 170 8
v 171 55
v 172 116
v 173 9
v 174 116
v 175 57
v 176 104
v 177 132
v 178 72
v 179 95
v 180 46
v 181 70
v 182 9
v 183 33
v 184 48
v 185 63
v 186 2
v 187 3
v 188 75
v 189 2
v 190 15
v 191 113
v 192 56
v 193 31
v 194 115
v 195 126
v 196 112
v 197 14
v 198 87
v 199 103
v 200 1
v 201 28
v 202 104
v 203 18
v 204 11
v 205 107
v 206 49
v 207 66
v 208 20
v 209 67
v 210 9
v 211 70
v 212 87
v 213 112
v 214 23
v 215 42
v 216 37
v 217 78
v 218 64
v 219 101
v 220 20
v 221 4
v 222 21
v 223 0
v 224 35
v 225 3
v 226 12
v 227 43
v 228 7
v 229 111
v 230 80
v 231 35
v 232 64
v 233 24
v 234 81
v 235 36
v 236 58
v 237 117
v 238 17
v 239 4
v 240 5
v 241 30
v 242 1
v 243 35
v 244 27
v 245 77
v 246 84
v 247 14
v 248 55
v 249 75
v 250 97
v 251 23
v 252 25
v 253 103
v 254 22
v 255 20
v 256 15
v 257 33
v 258 5
v 259 30
v 260 76
v 261 4
v 262 41
v 263 51
v 264 4
v 265 109
v 266 66
v 267 45
v 268 100
v 269 115
v 270 7
v 271 26
v 272 29
v 273 36
v 274 47
v 275 1
v 276 86
v 277 71
v 278 119
v 279 44
v 280 35
v 281 10
v 282 28
v 283 11
v 284 26
v 285 94
v 286 120
v 287 91
v 288 82
v 289 93
v 290 96
v 291 2
v 292 43
v 293 60
v 294 102
v 295 14
v 296 26
v 297 88
v 298 102
v 299 85
v 300 32
v 301 12
v 302 124
v 303 128
v 304 62
v 305 110
v 306 98
v 307 28
v 308 50
v 309 21
v 310 15
v 311 28
v 312 84
v 313 89
v 314 92
v 315 125
v 316 47
v 317 14
v 318 118
v 319 62
v 320 32
v 321 65
v 322 21
v 323 82
v 324 24
v 325 117
v 326 19
v 327 26
v 328 113
v 329 6
v 330 71
v 331 127
v 332 70
v 333 87
v 334 130
v 335 67
v 336 71
v 337 94
v 338 93
v 339 12
v 340 103
v 341 20
v 342 102
v 343 40
v 344 41
v 345 121
v 346 4
v 347 48
v 348 69
v 349 87
v 350 77
v 351 115
v 352 60
v 353 52
v 354 118
v 355 72
v 356 23
v 357 120
v 358 83
v 359 47
v 360 94
v 361 105
v 362 48
v 363 16
v 364 113
v 365 49
v 366 22
v 367 88
v 368 77
v 369 101
v 370 37
v 371 81
v 372 102
v 373 127
v 374 27
v 375 33
v 376 92
v 377 89
v 378 43
v 379 1
v 380 120
v 381 38
v 382 105
v 383 74
v 384 38
v 385 93
v 386 18
v 387 123
v 388 71
v 389 31
v 390 70
v 391 108
v 392 63
v 393 101
v 394 124
v 395 12
v 396 24
v 397 64
v 398 76
v 399 65
v 400 64
v 401 86
v 402 6
v 403 68
v 404 0
v 405 69
v 406 95
v 407 30
v 408 53
v 409 34
v 410 16
v 411 97
v 412 16
v 413 11
v 414 36
v 415 81
v 416 75
v 417 115
v 418 19
v 419 56
v 420 123
v 421 2
v 422 86
v 423 68
v 424 5
v 425 51
v 426 42
v 427 21
v 428 114
v 429 5
v 430 41
v 431 122
v 432 6
v 433 98
v 434 2
v 435 44
v 436 43
v 437 5
v 438 15
v 439 22
v 440 110
v 441 3
v 442 0
v 443 82
v 444 91
v 445 83
v 446 103
v 447 36
v 448 109
v 449 31
v 450 44
v 451 125
v 452 122
v 453 107
v 454 21
v 455 40
v 456 108
v 457 98
v 458 96
v 459 7
v 460 104
v 461 81
v 462 9
v 463 53
v 464 19
v 465 111
v 466 85
v 467 25
v 468 36
v 469 25
v 470 45
v 471 68
v 472 93
v 473 49
v 474 99
v 475 95
v 476 38
v 477 51
v 478 40
v 479 108
v 480 10
v 481 51
v 482 6
v 483 57
v 484 132
v 485 17
v 486 48
v 487 78
v 488 61
v 489 80
v 490 105
v 491 39
v 492 106
v 493 79
v 494 37
v 495 27
v 496 20
v 497 112
v 498 121
v 499 38
v 500 85
